(set-logic HORN)
(declare-datatypes ((Nat_0 0)) (((Z_0 ) (S_0 (unS_0 Nat_0)))))
(declare-fun diseqNat_0 (Nat_0 Nat_0) Bool)
(declare-fun unS_1 (Nat_0 Nat_0) Bool)
(declare-fun isZ_0 (Nat_0) Bool)
(declare-fun isS_0 (Nat_0) Bool)
(assert (forall ((x_96 Nat_0) (x_95 Nat_0))
	(=> (= x_96 (S_0 x_95))
	    (unS_1 x_95 x_96))))
(assert (isZ_0 Z_0))
(assert (forall ((x_97 Nat_0))
	(isS_0 (S_0 x_97))))
(assert (forall ((x_98 Nat_0))
	(diseqNat_0 Z_0 (S_0 x_98))))
(assert (forall ((x_99 Nat_0))
	(diseqNat_0 (S_0 x_99) Z_0)))
(assert (forall ((x_100 Nat_0) (x_101 Nat_0))
	(=> (diseqNat_0 x_100 x_101)
	    (diseqNat_0 (S_0 x_100) (S_0 x_101)))))
(declare-fun add_0 (Nat_0 Nat_0 Nat_0) Bool)
(declare-fun minus_0 (Nat_0 Nat_0 Nat_0) Bool)
(declare-fun le_0 (Nat_0 Nat_0) Bool)
(declare-fun ge_0 (Nat_0 Nat_0) Bool)
(declare-fun lt_0 (Nat_0 Nat_0) Bool)
(declare-fun gt_0 (Nat_0 Nat_0) Bool)
(declare-fun mult_0 (Nat_0 Nat_0 Nat_0) Bool)
(declare-fun div_0 (Nat_0 Nat_0 Nat_0) Bool)
(declare-fun mod_0 (Nat_0 Nat_0 Nat_0) Bool)
(assert (forall ((y_0 Nat_0))
	(add_0 y_0 Z_0 y_0)))
(assert (forall ((x_85 Nat_0) (y_0 Nat_0) (r_0 Nat_0))
	(=> (add_0 r_0 x_85 y_0)
	    (add_0 (S_0 r_0) (S_0 x_85) y_0))))
(assert (forall ((y_0 Nat_0))
	(minus_0 Z_0 Z_0 y_0)))
(assert (forall ((x_85 Nat_0) (y_0 Nat_0) (r_0 Nat_0))
	(=> (minus_0 r_0 x_85 y_0)
	    (minus_0 (S_0 r_0) (S_0 x_85) y_0))))
(assert (forall ((y_0 Nat_0))
	(le_0 Z_0 y_0)))
(assert (forall ((x_85 Nat_0) (y_0 Nat_0))
	(=> (le_0 x_85 y_0)
	    (le_0 (S_0 x_85) (S_0 y_0)))))
(assert (forall ((y_0 Nat_0))
	(ge_0 y_0 Z_0)))
(assert (forall ((x_85 Nat_0) (y_0 Nat_0))
	(=> (ge_0 x_85 y_0)
	    (ge_0 (S_0 x_85) (S_0 y_0)))))
(assert (forall ((y_0 Nat_0))
	(lt_0 Z_0 (S_0 y_0))))
(assert (forall ((x_85 Nat_0) (y_0 Nat_0))
	(=> (lt_0 x_85 y_0)
	    (lt_0 (S_0 x_85) (S_0 y_0)))))
(assert (forall ((y_0 Nat_0))
	(gt_0 (S_0 y_0) Z_0)))
(assert (forall ((x_85 Nat_0) (y_0 Nat_0))
	(=> (gt_0 x_85 y_0)
	    (gt_0 (S_0 x_85) (S_0 y_0)))))
(assert (forall ((y_0 Nat_0))
	(mult_0 Z_0 Z_0 y_0)))
(assert (forall ((x_85 Nat_0) (y_0 Nat_0) (r_0 Nat_0) (z_1 Nat_0))
	(=>	(and (mult_0 r_0 x_85 y_0)
			(add_0 z_1 r_0 y_0))
		(mult_0 z_1 (S_0 x_85) y_0))))
(assert (forall ((x_85 Nat_0) (y_0 Nat_0))
	(=> (lt_0 x_85 y_0)
	    (div_0 Z_0 x_85 y_0))))
(assert (forall ((x_85 Nat_0) (y_0 Nat_0) (r_0 Nat_0) (z_1 Nat_0))
	(=>	(and (ge_0 x_85 y_0)
			(minus_0 z_1 x_85 y_0)
			(div_0 r_0 z_1 y_0))
		(div_0 (S_0 r_0) x_85 y_0))))
(assert (forall ((x_85 Nat_0) (y_0 Nat_0))
	(=> (lt_0 x_85 y_0)
	    (mod_0 x_85 x_85 y_0))))
(assert (forall ((x_85 Nat_0) (y_0 Nat_0) (r_0 Nat_0) (z_1 Nat_0))
	(=>	(and (ge_0 x_85 y_0)
			(minus_0 z_1 x_85 y_0)
			(mod_0 r_0 z_1 y_0))
		(mod_0 r_0 x_85 y_0))))
(declare-fun and_0 (Bool Bool Bool) Bool)
(declare-fun or_0 (Bool Bool Bool) Bool)
(declare-fun hence_0 (Bool Bool Bool) Bool)
(declare-fun not_0 (Bool Bool) Bool)
(assert (and_0 false false false))
(assert (and_0 false true false))
(assert (and_0 false false true))
(assert (and_0 true true true))
(assert (or_0 false false false))
(assert (or_0 true true false))
(assert (or_0 true false true))
(assert (or_0 true true true))
(assert (hence_0 true false false))
(assert (hence_0 false true false))
(assert (hence_0 true false true))
(assert (hence_0 true true true))
(assert (not_0 true false))
(assert (not_0 false true))
(declare-datatypes ((MutInt_0 0)) (((mutInt_1 (curInt_0 Nat_0) (retInt_0 Nat_0)))))
(declare-fun diseqMutInt_0 (MutInt_0 MutInt_0) Bool)
(declare-fun curInt_1 (Nat_0 MutInt_0) Bool)
(declare-fun retInt_1 (Nat_0 MutInt_0) Bool)
(declare-fun ismutInt_0 (MutInt_0) Bool)
(assert (forall ((x_104 MutInt_0) (x_102 Nat_0) (x_103 Nat_0))
	(=> (= x_104 (mutInt_1 x_102 x_103))
	    (curInt_1 x_102 x_104))))
(assert (forall ((x_104 MutInt_0) (x_102 Nat_0) (x_103 Nat_0))
	(=> (= x_104 (mutInt_1 x_102 x_103))
	    (retInt_1 x_103 x_104))))
(assert (forall ((x_105 Nat_0) (x_106 Nat_0))
	(ismutInt_0 (mutInt_1 x_105 x_106))))
(assert (forall ((x_107 Nat_0) (x_108 Nat_0) (x_109 Nat_0) (x_110 Nat_0))
	(=> (diseqNat_0 x_107 x_109)
	    (diseqMutInt_0 (mutInt_1 x_107 x_108) (mutInt_1 x_109 x_110)))))
(assert (forall ((x_107 Nat_0) (x_108 Nat_0) (x_109 Nat_0) (x_110 Nat_0))
	(=> (diseqNat_0 x_108 x_110)
	    (diseqMutInt_0 (mutInt_1 x_107 x_108) (mutInt_1 x_109 x_110)))))
(declare-datatypes ((MutMutInt_0 0)) (((mutMutInt_1 (curMutInt_0 MutInt_0) (retMutInt_0 MutInt_0)))))
(declare-fun diseqMutMutInt_0 (MutMutInt_0 MutMutInt_0) Bool)
(declare-fun curMutInt_1 (MutInt_0 MutMutInt_0) Bool)
(declare-fun retMutInt_1 (MutInt_0 MutMutInt_0) Bool)
(declare-fun ismutMutInt_0 (MutMutInt_0) Bool)
(assert (forall ((x_113 MutMutInt_0) (x_111 MutInt_0) (x_112 MutInt_0))
	(=> (= x_113 (mutMutInt_1 x_111 x_112))
	    (curMutInt_1 x_111 x_113))))
(assert (forall ((x_113 MutMutInt_0) (x_111 MutInt_0) (x_112 MutInt_0))
	(=> (= x_113 (mutMutInt_1 x_111 x_112))
	    (retMutInt_1 x_112 x_113))))
(assert (forall ((x_114 MutInt_0) (x_115 MutInt_0))
	(ismutMutInt_0 (mutMutInt_1 x_114 x_115))))
(assert (forall ((x_116 MutInt_0) (x_117 MutInt_0) (x_118 MutInt_0) (x_119 MutInt_0))
	(=> (diseqMutInt_0 x_116 x_118)
	    (diseqMutMutInt_0 (mutMutInt_1 x_116 x_117) (mutMutInt_1 x_118 x_119)))))
(assert (forall ((x_116 MutInt_0) (x_117 MutInt_0) (x_118 MutInt_0) (x_119 MutInt_0))
	(=> (diseqMutInt_0 x_117 x_119)
	    (diseqMutMutInt_0 (mutMutInt_1 x_116 x_117) (mutMutInt_1 x_118 x_119)))))
(declare-fun main_0 (Bool) Bool)
(declare-fun main_1 (Nat_0 Nat_0 Nat_0 Nat_0 Nat_0 MutInt_0 MutInt_0 MutInt_0 Bool Bool) Bool)
(declare-fun swapdecboundthree_0 (Nat_0 MutMutInt_0 MutMutInt_0 MutMutInt_0) Bool)
(declare-fun main_2 (Bool Bool) Bool)
(declare-fun main_3 (Nat_0 Nat_0 Nat_0 Nat_0 Nat_0 MutInt_0 MutInt_0 MutInt_0 Bool Bool Bool) Bool)
(declare-fun mayswapMutInt_0 (MutMutInt_0 MutMutInt_0) Bool)
(declare-fun mayswapMutInt_1 (MutMutInt_0 MutMutInt_0 Bool) Bool)
(declare-fun swapdecboundthree_1 (Nat_0 MutMutInt_0 MutMutInt_0 MutMutInt_0 Bool) Bool)
(assert (forall ((x_0 Bool) (x_1 Nat_0) (x_2 Nat_0) (x_3 Nat_0) (x_4 Nat_0) (x_5 Nat_0) (x_6 Nat_0) (x_7 Nat_0) (x_8 MutInt_0) (x_9 MutInt_0) (x_10 MutInt_0) (x_11 MutInt_0) (x_12 MutInt_0) (x_13 MutInt_0))
	(=>	(and (swapdecboundthree_0 x_1 (mutMutInt_1 (mutInt_1 x_2 x_5) x_9) (mutMutInt_1 (mutInt_1 x_3 x_6) x_11) (mutMutInt_1 (mutInt_1 x_4 x_7) x_13))
			(= x_12 x_13)
			(= x_10 x_11)
			(= x_8 x_9)
			(main_1 x_1 x_5 x_6 x_7 x_2 x_8 x_10 x_12 true x_0)
			(ge_0 x_2 x_5))
		(main_0 x_0))))
(assert (forall ((x_0 Bool) (x_1 Nat_0) (x_2 Nat_0) (x_3 Nat_0) (x_4 Nat_0) (x_5 Nat_0) (x_6 Nat_0) (x_7 Nat_0) (x_8 MutInt_0) (x_9 MutInt_0) (x_10 MutInt_0) (x_11 MutInt_0) (x_12 MutInt_0) (x_13 MutInt_0))
	(=>	(and (swapdecboundthree_0 x_1 (mutMutInt_1 (mutInt_1 x_2 x_5) x_9) (mutMutInt_1 (mutInt_1 x_3 x_6) x_11) (mutMutInt_1 (mutInt_1 x_4 x_7) x_13))
			(= x_12 x_13)
			(= x_10 x_11)
			(= x_8 x_9)
			(main_1 x_1 x_5 x_6 x_7 x_2 x_8 x_10 x_12 false x_0)
			(lt_0 x_2 x_5))
		(main_0 x_0))))
(assert (forall ((x_14 Nat_0) (x_15 Nat_0) (x_16 Nat_0) (x_17 Nat_0) (x_18 Nat_0) (x_19 MutInt_0) (x_20 MutInt_0) (x_21 MutInt_0) (x_22 Bool) (x_120 Nat_0) (x_121 Nat_0) (x_122 Nat_0) (x_123 Nat_0) (x_124 Nat_0) (x_125 Nat_0))
	(=>	(and (= x_120 x_121)
			(= x_122 x_123)
			(= x_124 x_125)
			(main_2 true x_22)
			(retInt_1 x_120 x_19)
			(curInt_1 x_121 x_19)
			(retInt_1 x_122 x_20)
			(curInt_1 x_123 x_20)
			(retInt_1 x_124 x_21)
			(curInt_1 x_125 x_21))
		(main_1 x_14 x_15 x_16 x_17 x_18 x_19 x_20 x_21 false x_22))))
(assert (forall ((x_23 Nat_0) (x_24 Nat_0) (x_25 Nat_0) (x_26 Nat_0) (x_27 Nat_0) (x_28 MutInt_0) (x_29 MutInt_0) (x_30 MutInt_0) (x_31 Bool) (x_86 Nat_0) (x_87 Nat_0))
	(=>	(and (main_3 x_23 x_24 x_25 x_26 x_27 x_28 x_29 x_30 true true x_31)
			(le_0 x_86 x_87)
			(minus_0 x_86 x_27 x_24)
			(mult_0 x_87 (S_0 (S_0 (S_0 Z_0))) x_23))
		(main_1 x_23 x_24 x_25 x_26 x_27 x_28 x_29 x_30 true x_31))))
(assert (forall ((x_23 Nat_0) (x_24 Nat_0) (x_25 Nat_0) (x_26 Nat_0) (x_27 Nat_0) (x_28 MutInt_0) (x_29 MutInt_0) (x_30 MutInt_0) (x_31 Bool) (x_88 Nat_0) (x_89 Nat_0))
	(=>	(and (main_3 x_23 x_24 x_25 x_26 x_27 x_28 x_29 x_30 true false x_31)
			(gt_0 x_88 x_89)
			(minus_0 x_88 x_27 x_24)
			(mult_0 x_89 (S_0 (S_0 (S_0 Z_0))) x_23))
		(main_1 x_23 x_24 x_25 x_26 x_27 x_28 x_29 x_30 true x_31))))
(assert (forall ((x_32 Nat_0) (x_33 Nat_0) (x_34 Nat_0) (x_35 Nat_0) (x_36 Nat_0) (x_37 MutInt_0) (x_38 MutInt_0) (x_39 MutInt_0) (x_40 Bool) (x_41 Bool) (x_126 Nat_0) (x_127 Nat_0) (x_128 Nat_0) (x_129 Nat_0) (x_130 Nat_0) (x_131 Nat_0))
	(=>	(and (= x_126 x_127)
			(= x_128 x_129)
			(= x_130 x_131)
			(main_2 true x_41)
			(retInt_1 x_126 x_37)
			(curInt_1 x_127 x_37)
			(retInt_1 x_128 x_38)
			(curInt_1 x_129 x_38)
			(retInt_1 x_130 x_39)
			(curInt_1 x_131 x_39))
		(main_3 x_32 x_33 x_34 x_35 x_36 x_37 x_38 x_39 x_40 false x_41))))
(assert (forall ((x_42 Nat_0) (x_43 Nat_0) (x_44 Nat_0) (x_45 Nat_0) (x_46 Nat_0) (x_47 MutInt_0) (x_48 MutInt_0) (x_49 MutInt_0) (x_50 Bool) (x_51 Bool) (x_132 Nat_0) (x_133 Nat_0) (x_134 Nat_0) (x_135 Nat_0) (x_136 Nat_0) (x_137 Nat_0))
	(=>	(and (= x_132 x_133)
			(= x_134 x_135)
			(= x_136 x_137)
			(main_2 false x_51)
			(retInt_1 x_132 x_47)
			(curInt_1 x_133 x_47)
			(retInt_1 x_134 x_48)
			(curInt_1 x_135 x_48)
			(retInt_1 x_136 x_49)
			(curInt_1 x_137 x_49))
		(main_3 x_42 x_43 x_44 x_45 x_46 x_47 x_48 x_49 x_50 true x_51))))
(assert (forall ((x_52 Bool))
	(=> (= x_52 false)
	    (main_2 false x_52))))
(assert (forall ((x_53 Bool))
	(=> (= x_53 true)
	    (main_2 true x_53))))
(assert (forall ((x_54 MutMutInt_0) (x_55 MutMutInt_0) (x_56 Bool))
	(=> (mayswapMutInt_1 x_54 x_55 x_56)
	    (mayswapMutInt_0 x_54 x_55))))
(assert (forall ((x_57 MutMutInt_0) (x_58 MutMutInt_0) (x_138 MutInt_0) (x_139 MutInt_0) (x_140 MutInt_0) (x_141 MutInt_0))
	(=>	(and (= x_138 x_139)
			(= x_140 x_141)
			(retMutInt_1 x_138 x_58)
			(curMutInt_1 x_139 x_58)
			(retMutInt_1 x_140 x_57)
			(curMutInt_1 x_141 x_57))
		(mayswapMutInt_1 x_57 x_58 false))))
(assert (forall ((x_59 MutMutInt_0) (x_60 MutMutInt_0) (x_61 MutInt_0) (x_62 MutInt_0) (x_142 MutInt_0) (x_143 MutInt_0) (x_144 MutInt_0) (x_145 MutInt_0))
	(=>	(and (= x_62 x_142)
			(= x_61 x_143)
			(= x_144 x_62)
			(= x_145 x_61)
			(curMutInt_1 x_142 x_59)
			(curMutInt_1 x_143 x_60)
			(retMutInt_1 x_144 x_60)
			(retMutInt_1 x_145 x_59))
		(mayswapMutInt_1 x_59 x_60 true))))
(assert (forall ((x_63 Nat_0) (x_64 MutMutInt_0) (x_65 MutMutInt_0) (x_66 MutMutInt_0) (x_67 MutInt_0) (x_68 MutInt_0) (x_69 MutInt_0) (x_70 MutInt_0) (x_71 MutInt_0) (x_72 MutInt_0) (x_146 MutInt_0) (x_147 MutInt_0) (x_148 MutInt_0) (x_149 MutInt_0) (x_150 MutInt_0) (x_151 MutInt_0))
	(=>	(and (mayswapMutInt_0 (mutMutInt_1 x_146 x_67) (mutMutInt_1 x_147 x_68))
			(mayswapMutInt_0 (mutMutInt_1 x_68 x_69) (mutMutInt_1 x_148 x_70))
			(mayswapMutInt_0 (mutMutInt_1 x_67 x_71) (mutMutInt_1 x_69 x_72))
			(swapdecboundthree_1 x_63 (mutMutInt_1 x_71 x_149) (mutMutInt_1 x_72 x_150) (mutMutInt_1 x_70 x_151) true)
			(= x_63 Z_0)
			(curMutInt_1 x_146 x_64)
			(curMutInt_1 x_147 x_65)
			(curMutInt_1 x_148 x_66)
			(retMutInt_1 x_149 x_64)
			(retMutInt_1 x_150 x_65)
			(retMutInt_1 x_151 x_66))
		(swapdecboundthree_0 x_63 x_64 x_65 x_66))))
(assert (forall ((x_63 Nat_0) (x_64 MutMutInt_0) (x_65 MutMutInt_0) (x_66 MutMutInt_0) (x_67 MutInt_0) (x_68 MutInt_0) (x_69 MutInt_0) (x_70 MutInt_0) (x_71 MutInt_0) (x_72 MutInt_0) (x_152 MutInt_0) (x_153 MutInt_0) (x_154 MutInt_0) (x_155 MutInt_0) (x_156 MutInt_0) (x_157 MutInt_0))
	(=>	(and (mayswapMutInt_0 (mutMutInt_1 x_152 x_67) (mutMutInt_1 x_153 x_68))
			(mayswapMutInt_0 (mutMutInt_1 x_68 x_69) (mutMutInt_1 x_154 x_70))
			(mayswapMutInt_0 (mutMutInt_1 x_67 x_71) (mutMutInt_1 x_69 x_72))
			(swapdecboundthree_1 x_63 (mutMutInt_1 x_71 x_155) (mutMutInt_1 x_72 x_156) (mutMutInt_1 x_70 x_157) false)
			(diseqNat_0 x_63 Z_0)
			(curMutInt_1 x_152 x_64)
			(curMutInt_1 x_153 x_65)
			(curMutInt_1 x_154 x_66)
			(retMutInt_1 x_155 x_64)
			(retMutInt_1 x_156 x_65)
			(retMutInt_1 x_157 x_66))
		(swapdecboundthree_0 x_63 x_64 x_65 x_66))))
(assert (forall ((x_73 Nat_0) (x_74 MutMutInt_0) (x_75 MutMutInt_0) (x_76 MutMutInt_0) (x_77 MutInt_0) (x_78 MutInt_0) (x_79 MutInt_0) (a_3 MutInt_0) (a_4 MutInt_0) (a_5 MutInt_0) (x_90 Nat_0) (x_91 Nat_0) (x_92 Nat_0) (x_93 Nat_0) (x_158 MutInt_0) (x_159 MutInt_0) (x_160 MutInt_0) (x_161 MutInt_0) (x_162 Nat_0) (x_163 MutInt_0) (x_164 Nat_0) (x_165 MutInt_0) (x_166 Nat_0) (x_167 MutInt_0) (x_168 Nat_0) (x_169 MutInt_0) (x_170 Nat_0) (x_171 MutInt_0) (x_172 Nat_0))
	(=>	(and (swapdecboundthree_0 x_90 (mutMutInt_1 a_3 x_77) (mutMutInt_1 a_4 x_78) (mutMutInt_1 a_5 x_79))
			(= x_158 x_79)
			(= x_159 x_78)
			(= x_160 x_77)
			(= a_3 (mutInt_1 x_91 x_162))
			(= a_4 (mutInt_1 x_92 x_164))
			(= a_5 (mutInt_1 x_93 x_166))
			(minus_0 x_90 x_73 (S_0 Z_0))
			(minus_0 x_91 x_168 (S_0 Z_0))
			(minus_0 x_92 x_170 (S_0 (S_0 Z_0)))
			(minus_0 x_93 x_172 (S_0 (S_0 (S_0 Z_0))))
			(retMutInt_1 x_158 x_76)
			(retMutInt_1 x_159 x_75)
			(retMutInt_1 x_160 x_74)
			(curMutInt_1 x_161 x_74)
			(retInt_1 x_162 x_161)
			(curMutInt_1 x_163 x_75)
			(retInt_1 x_164 x_163)
			(curMutInt_1 x_165 x_76)
			(retInt_1 x_166 x_165)
			(curMutInt_1 x_167 x_74)
			(curInt_1 x_168 x_167)
			(curMutInt_1 x_169 x_75)
			(curInt_1 x_170 x_169)
			(curMutInt_1 x_171 x_76)
			(curInt_1 x_172 x_171))
		(swapdecboundthree_1 x_73 x_74 x_75 x_76 false))))
(assert (forall ((x_80 Nat_0) (x_81 MutMutInt_0) (x_82 MutMutInt_0) (x_83 MutMutInt_0) (x_173 MutInt_0) (x_174 MutInt_0) (x_175 MutInt_0) (x_176 MutInt_0) (x_177 MutInt_0) (x_178 MutInt_0))
	(=>	(and (= x_173 x_174)
			(= x_175 x_176)
			(= x_177 x_178)
			(retMutInt_1 x_173 x_83)
			(curMutInt_1 x_174 x_83)
			(retMutInt_1 x_175 x_81)
			(curMutInt_1 x_176 x_81)
			(retMutInt_1 x_177 x_82)
			(curMutInt_1 x_178 x_82))
		(swapdecboundthree_1 x_80 x_81 x_82 x_83 true))))
(assert (forall ((x_84 Nat_0))
	(=> (main_0 true)
	    false)))
(check-sat)
